data;


param d:= 100;
param r:=5;
param p:=0.780000;
param M:=1000;
param U:=
         1         1        3.155826e-01
         2         1       -7.784408e-01
         3         1       -7.575416e-01
         4         1       -6.620808e-01
         5         1        3.499259e-02
         6         1       -1.809916e-02
         7         1       -1.106848e+00
         8         1        9.454924e-01
         9         1        6.958584e-01
        10         1        1.380533e+00
        11         1        1.805816e+00
        12         1        2.379031e-01
        13         1        1.035434e-01
        14         1        1.416914e+00
        15         1       -1.210353e+00
        16         1       -8.461678e-01
        17         1       -8.819100e-01
        18         1        1.008784e+00
        19         1       -4.753411e-01
        20         1       -1.073218e-01
        21         1        3.488877e-01
        22         1       -1.990167e+00
        23         1        2.239225e-01
        24         1       -5.089449e-01
        25         1       -1.251916e+00
        26         1        5.639114e-01
        27         1        6.195078e-01
        28         1        5.479483e-01
        29         1        7.897078e-01
        30         1        1.395320e-01
        31         1       -1.588740e+00
        32         1       -1.288389e+00
        33         1        1.533946e-01
        34         1       -3.697147e-01
        35         1       -1.850268e-01
        36         1        1.661726e+00
        37         1       -1.255098e+00
        38         1       -3.433961e-01
        39         1        2.806438e-01
        40         1        1.007795e+00
        41         1        3.192241e-01
        42         1       -1.380200e+00
        43         1        3.040446e-01
        44         1        1.296530e+00
        45         1        1.616547e-01
        46         1       -2.750754e-01
        47         1        9.216259e-01
        48         1       -5.375326e-01
        49         1       -4.697024e-01
        50         1        1.397553e+00
        51         1        7.727858e-01
        52         1       -6.061847e-01
        53         1        1.963815e-01
        54         1        1.037627e-02
        55         1       -1.414625e-01
        56         1       -4.429766e-02
        57         1       -7.251053e-01
        58         1       -1.585594e-01
        59         1        9.442537e-02
        60         1        9.080373e-01
        61         1        1.341073e+00
        62         1       -5.808654e-01
        63         1       -2.227967e+00
        64         1        3.069747e-01
        65         1        1.662157e+00
        66         1       -1.142268e+00
        67         1        1.272063e+00
        68         1       -1.078407e+00
        69         1       -1.063218e-01
        70         1       -6.533047e-01
        71         1        4.435178e-01
        72         1        1.241410e+00
        73         1       -8.157329e-01
        74         1        1.913649e-01
        75         1        1.619232e+00
        76         1        1.519296e-01
        77         1       -6.996599e-01
        78         1       -3.704228e-02
        79         1       -3.745459e-01
        80         1       -9.193987e-01
        81         1        7.282685e-01
        82         1       -2.399847e+00
        83         1       -1.888792e-01
        84         1        1.597310e+00
        85         1       -6.834007e-01
        86         1       -1.305007e+00
        87         1        9.599860e-01
        88         1        1.204884e+00
        89         1        2.427724e-04
        90         1        6.074457e-01
        91         1        2.165239e-02
        92         1        8.342616e-01
        93         1       -7.803383e-01
        94         1       -1.006554e+00
        95         1       -2.413296e+00
        96         1        1.155789e+00
        97         1        1.110423e+00
        98         1       -1.879416e+00
        99         1        2.545577e-01
       100         1       -3.126156e-01
         1         2       -4.673609e-01
         2         2        2.150722e+00
         3         2       -5.719101e-01
         4         2        1.549435e+00
         5         2       -1.205292e-01
         6         2        1.190950e-01
         7         2        1.384096e+00
         8         2        1.348531e+00
         9         2       -2.638742e-01
        10         2        1.391746e+00
        11         2       -3.939239e-01
        12         2       -2.017398e-01
        13         2        6.829698e-01
        14         2        1.006842e+00
        15         2       -9.803984e-01
        16         2        8.305095e-01
        17         2        1.452040e+00
        18         2       -2.956882e-01
        19         2       -1.291558e+00
        20         2        4.347371e-03
        21         2       -6.357306e-01
        22         2        5.469628e-01
        23         2        1.610864e+00
        24         2       -1.269888e+00
        25         2       -1.148983e+00
        26         2        1.993701e+00
        27         2        2.021518e+00
        28         2        2.103379e+00
        29         2        9.206805e-01
        30         2        6.027016e-01
        31         2       -6.628475e-02
        32         2       -1.890961e-01
        33         2        2.196477e-01
        34         2       -7.541219e-02
        35         2        3.381194e+00
        36         2       -9.348140e-01
        37         2       -4.160474e-01
        38         2       -5.244634e-01
        39         2       -1.115964e+00
        40         2        1.609450e+00
        41         2       -3.425124e-02
        42         2        1.510464e-01
        43         2       -4.665524e-01
        44         2       -2.054340e+00
        45         2       -1.453801e+00
        46         2       -3.307660e-01
        47         2       -1.162947e+00
        48         2       -8.104265e-01
        49         2       -9.249803e-01
        50         2       -1.007650e+00
        51         2       -5.282468e-01
        52         2       -5.966987e-01
        53         2       -1.843644e+00
        54         2       -5.775592e-01
        55         2       -4.938510e-01
        56         2       -2.336674e+00
        57         2        3.687252e-01
        58         2        1.145504e-01
        59         2       -2.527088e-01
        60         2        1.251997e-01
        61         2       -2.693166e-01
        62         2        1.827344e-01
        63         2       -6.596420e-01
        64         2       -3.052314e-01
        65         2        1.804081e+00
        66         2       -2.589836e-01
        67         2        1.421478e-02
        68         2        1.663826e-01
        69         2       -3.368884e-01
        70         2        7.629173e-01
        71         2       -9.719235e-01
        72         2       -8.334614e-01
        73         2        1.035049e+00
        74         2        7.433740e-01
        75         2        9.348949e-01
        76         2       -1.377677e+00
        77         2       -7.761231e-01
        78         2       -2.557812e-01
        79         2       -7.921839e-01
        80         2        2.151012e+00
        81         2        7.617550e-01
        82         2        1.468203e+00
        83         2        1.352848e-01
        84         2       -1.102177e+00
        85         2        7.609159e-02
        86         2       -2.576393e-01
        87         2        1.237173e+00
        88         2       -5.757777e-01
        89         2       -4.957215e-01
        90         2       -7.483502e-01
        91         2       -2.867302e-01
        92         2       -3.557120e-01
        93         2       -4.476571e-01
        94         2        8.158336e-01
        95         2        3.415939e-01
        96         2       -1.704870e+00
        97         2       -1.302796e+00
        98         2        3.407328e-01
        99         2       -5.629072e-01
       100         2       -7.095817e-01
         1         3       -6.852809e-01
         2         3        1.637763e+00
         3         3        4.837814e-02
         4         3        1.464859e+00
         5         3        1.230215e+00
         6         3       -2.513860e+00
         7         3       -1.543264e+00
         8         3        8.982832e-01
         9         3       -1.364987e-01
        10         3       -1.458773e-01
        11         3        1.697677e+00
        12         3        6.115793e-01
        13         3       -3.717750e-01
        14         3        7.030354e-01
        15         3       -5.498722e-01
        16         3       -3.212759e-01
        17         3       -8.687063e-01
        18         3        1.421175e+00
        19         3       -8.295702e-01
        20         3       -8.981577e-02
        21         3        1.048732e+00
        22         3       -7.665113e-01
        23         3       -6.481365e-01
        24         3        1.720867e-01
        25         3        5.406170e-02
        26         3        1.684066e+00
        27         3        1.404737e+00
        28         3        1.220307e-01
        29         3        1.866887e-01
        30         3        7.472134e-03
        31         3       -9.766104e-01
        32         3        6.797156e-01
        33         3       -2.677151e-01
        34         3        3.111584e-01
        35         3       -3.503533e-01
        36         3       -9.152938e-01
        37         3       -9.972689e-01
        38         3       -1.046872e+00
        39         3       -2.432753e-02
        40         3       -2.906203e-01
        41         3        1.464387e+00
        42         3       -6.841764e-01
        43         3       -7.021563e-01
        44         3       -4.634720e-01
        45         3        3.992894e-01
        46         3       -3.224568e-01
        47         3       -1.287541e-02
        48         3        1.982531e+00
        49         3       -1.797774e+00
        50         3       -1.001736e+00
        51         3       -3.072592e-01
        52         3       -5.994752e-01
        53         3        1.292854e+00
        54         3        8.371447e-01
        55         3        1.011114e+00
        56         3        2.323334e+00
        57         3       -5.186670e-01
        58         3        3.189400e-01
        59         3        1.792700e+00
        60         3        7.658624e-01
        61         3       -5.891932e-01
        62         3       -1.358597e-01
        63         3       -4.936092e-02
        64         3        1.305212e+00
        65         3        1.062037e+00
        66         3        5.380162e-01
        67         3        1.933398e-01
        68         3        2.690302e-01
        69         3        2.544924e+00
        70         3       -5.432862e-01
        71         3        1.967009e+00
        72         3        1.335490e-01
        73         3       -1.369547e+00
        74         3       -1.125702e+00
        75         3       -2.203528e-01
        76         3       -1.160472e+00
        77         3        3.647811e-01
        78         3        9.303594e-01
        79         3       -1.278751e+00
        80         3        1.526332e+00
        81         3        2.088428e+00
        82         3       -5.388255e-01
        83         3       -7.156653e-01
        84         3       -2.986128e-01
        85         3        1.692136e+00
        86         3        5.586089e-01
        87         3        3.200057e-01
        88         3       -9.069599e-01
        89         3       -1.018593e+00
        90         3        8.565291e-01
        91         3       -8.537118e-01
        92         3        4.364793e-01
        93         3       -5.525951e-01
        94         3       -3.526907e-01
        95         3        1.445000e+00
        96         3       -5.015587e-01
        97         3       -2.217850e-02
        98         3       -2.290232e-01
        99         3       -1.134862e-01
       100         3        9.784394e-01
         1         4       -2.980505e+00
         2         4        8.799158e-02
         3         4       -1.581898e+00
         4         4        8.053196e-01
         5         4        4.309723e-01
         6         4       -2.177241e+00
         7         4       -6.648607e-01
         8         4       -3.904522e-01
         9         4        1.278905e+00
        10         4       -1.009184e+00
        11         4        6.332661e-01
        12         4       -1.895053e+00
        13         4       -2.523253e+00
        14         4       -1.074849e+00
        15         4       -1.322539e-01
        16         4        8.696389e-02
        17         4        3.481178e-01
        18         4        1.683372e-01
        19         4        1.186606e+00
        20         4       -3.602166e+00
        21         4       -5.007453e-01
        22         4        2.644306e-01
        23         4       -1.402529e+00
        24         4       -8.979537e-01
        25         4       -2.877575e+00
        26         4        8.153351e-01
        27         4       -9.659014e-01
        28         4       -1.680794e+00
        29         4       -1.179302e+00
        30         4        1.059955e+00
        31         4        2.795265e+00
        32         4        1.378233e+00
        33         4       -1.354879e+00
        34         4       -6.339149e-01
        35         4       -8.451977e-02
        36         4        5.503834e-02
        37         4        9.732505e-01
        38         4        1.195371e+00
        39         4        6.677566e-02
        40         4       -7.181740e-02
        41         4        2.321278e-01
        42         4        7.365827e-01
        43         4       -8.254866e-01
        44         4       -4.944498e-01
        45         4        2.325955e+00
        46         4       -1.202699e-01
        47         4        1.692655e+00
        48         4       -1.443953e+00
        49         4       -5.474537e-01
        50         4       -1.426032e-01
        51         4       -1.549844e+00
        52         4        1.813258e+00
        53         4        5.741001e-01
        54         4        8.834626e-01
        55         4        4.457464e-01
        56         4        9.399377e-01
        57         4       -4.402530e-01
        58         4       -7.164978e-01
        59         4       -1.174353e-01
        60         4       -1.113548e+00
        61         4       -9.539280e-01
        62         4        1.388467e+00
        63         4        1.278436e+00
        64         4        1.426831e+00
        65         4        1.378284e-01
        66         4        1.543246e+00
        67         4        1.841216e+00
        68         4       -1.756259e-01
        69         4       -1.246833e+00
        70         4       -9.632331e-02
        71         4       -2.679376e-01
        72         4        1.747195e-01
        73         4        5.812519e-01
        74         4        1.050178e+00
        75         4        3.067651e-01
        76         4        9.145445e-02
        77         4       -9.187690e-01
        78         4        4.371050e-01
        79         4       -1.076678e+00
        80         4       -1.665064e+00
        81         4       -3.148404e-01
        82         4       -7.846567e-01
        83         4       -8.840070e-01
        84         4        1.586185e+00
        85         4       -1.142873e+00
        86         4       -3.973720e-01
        87         4       -2.072111e+00
        88         4       -3.757432e-01
        89         4        6.644054e-01
        90         4        1.327839e+00
        91         4        6.093834e-01
        92         4        1.330217e+00
        93         4       -1.208641e+00
        94         4       -1.042714e+00
        95         4        1.307063e+00
        96         4        6.192875e-01
        97         4       -9.434516e-01
        98         4       -1.312484e+00
        99         4        3.470942e-01
       100         4       -1.501522e+00
         1         5        9.111241e-01
         2         5       -2.093890e-01
         3         5        4.300786e-01
         4         5        1.109164e+00
         5         5        1.319040e-01
         6         5        3.255923e+00
         7         5        3.017486e-01
         8         5        1.394950e+00
         9         5        7.325148e-01
        10         5       -8.767857e-01
        11         5        8.644348e-01
        12         5       -6.732429e-01
        13         5        2.840061e+00
        14         5        4.937541e-01
        15         5       -5.912988e-01
        16         5       -1.738637e-01
        17         5       -1.390331e+00
        18         5       -8.668308e-01
        19         5        5.890196e-01
        20         5        6.816862e-01
        21         5       -5.972246e-01
        22         5       -2.734062e-01
        23         5        1.278530e+00
        24         5        1.303915e+00
        25         5        9.250317e-02
        26         5        9.032877e-01
        27         5       -5.406710e-01
        28         5       -6.178193e-01
        29         5       -3.772495e-02
        30         5        5.618927e-01
        31         5       -1.988269e-01
        32         5       -1.120897e+00
        33         5       -1.748753e+00
        34         5        1.532439e+00
        35         5       -6.231981e-01
        36         5        1.139390e+00
        37         5        2.126738e-01
        38         5       -1.073859e-01
        39         5       -3.287475e-01
        40         5        1.572381e+00
        41         5        1.297739e-02
        42         5        1.853688e+00
        43         5       -7.958155e-02
        44         5       -1.085575e+00
        45         5        3.012957e-01
        46         5        7.201513e-03
        47         5       -9.465921e-01
        48         5       -1.113893e+00
        49         5        1.198116e+00
        50         5        1.218310e+00
        51         5        8.959788e-02
        52         5        1.528469e+00
        53         5       -1.307816e+00
        54         5       -1.452713e+00
        55         5        1.257118e+00
        56         5        4.243365e-01
        57         5       -7.642898e-01
        58         5        7.093435e-02
        59         5       -6.988201e-01
        60         5        7.123608e-01
        61         5        1.087561e+00
        62         5        1.000535e+00
        63         5        3.643624e-01
        64         5        1.676512e+00
        65         5        6.569032e-01
        66         5       -4.812635e-01
        67         5        1.007631e+00
        68         5        4.277611e-02
        69         5        2.989025e-01
        70         5       -1.685425e+00
        71         5        1.555270e+00
        72         5       -2.207073e-01
        73         5       -1.086496e+00
        74         5        6.302647e-01
        75         5        8.005207e-01
        76         5       -1.186911e-01
        77         5       -1.419373e+00
        78         5       -1.596940e-02
        79         5        5.590598e-01
        80         5       -2.443885e-01
        81         5       -6.118198e-01
        82         5        7.863415e-02
        83         5        3.158410e-02
        84         5        3.216681e-01
        85         5       -1.273834e+00
        86         5       -4.060144e-01
        87         5       -2.403931e-01
        88         5        6.636803e-01
        89         5       -1.863469e+00
        90         5       -1.554641e-01
        91         5       -1.981051e-01
        92         5       -1.682553e-01
        93         5        2.100829e+00
        94         5       -1.303718e+00
        95         5       -3.788034e-01
        96         5        1.666098e+00
        97         5       -7.262561e-01
        98         5        1.631968e-01
        99         5        1.243068e-01
       100         5       -4.621949e-01
;

param theta:=
    1        1.259173e-01
    2       -7.788871e-01
    3       -3.132372e-01
    4        1.367646e+00
    5       -5.665074e-01
;
param X_true:=
    1       -3.974020e+00
    2       -2.047235e+00
    3       -2.072207e+00
    4       -1.276008e+00
    5        2.276287e-01
    6       -4.129805e+00
    7       -1.814255e+00
    8       -2.536925e+00
    9        1.670019e+00
   10       -1.747987e+00
   11        3.788054e-01
   12       -2.214845e+00
   13       -5.462297e+00
   14       -2.575747e+00
   15        9.375543e-01
   16       -4.353538e-01
   17        2.938231e-01
   18        6.334581e-01
   19        2.495150e+00
   20       -5.301434e+00
   21       -1.359187e-01
   22        8.001525e-02
   23       -3.665926e+00
   24       -1.095649e+00
   25       -3.267551e+00
   26       -1.406003e+00
   27       -2.951260e+00
   28       -3.556256e+00
   29       -2.267643e+00
   30        6.771187e-01
   31        4.093059e+00
   32        2.292073e+00
   33       -9.302199e-01
   34       -1.820392e+00
   35       -2.309670e+00
   36        6.538589e-01
   37        1.688978e+00
   38        2.388857e+00
   39        1.189731e+00
   40       -2.024634e+00
   41       -8.171003e-02
   42       -1.198733e-01
   43       -4.622723e-01
   44        1.847285e+00
   45        4.038027e+00
   46        1.554317e-01
   47        3.877089e+00
   48       -1.401244e+00
   49       -2.030233e-01
   50        3.893901e-01
   51       -1.565398e+00
   52        2.190216e+00
   53        2.581802e+00
   54        2.220172e+00
   55       -5.242021e-02
   56        2.131785e+00
   57       -3.851672e-01
   58       -1.229191e+00
   59       -1.175420e-01
   60       -2.149573e+00
   61       -1.357558e+00
   62        1.159207e+00
   63        1.790742e+00
   64        8.691963e-01
   65       -1.712190e+00
   66        2.272615e+00
   67        2.035843e+00
   68       -6.140808e-01
   69       -2.422712e+00
   70        3.167582e-01
   71       -1.050791e+00
   72        1.127641e+00
   73        9.305470e-01
   74        8.769259e-01
   75       -4.892203e-01
   76        1.648005e+00
   77       -5.031542e-02
   78        5.099889e-01
   79       -8.188133e-01
   80       -4.408038e+00
   81       -1.239783e+00
   82       -2.394646e+00
   83       -1.131883e+00
   84        3.140249e+00
   85       -1.516769e+00
   86       -4.520821e-01
   87       -3.640707e+00
   88       -5.588405e-03
   89        2.669543e+00
   90        2.295157e+00
   91        1.439120e+00
   92        2.159969e+00
   93       -2.419619e+00
   94       -1.339206e+00
   95        9.796280e-01
   96        1.533651e+00
   97        2.826212e-01
   98       -2.317770e+00
   99        9.103237e-01
  100       -1.584877e+00
;
param X:=
    1       -3.517801e-01
    2        4.727216e-01
    3        1.610954e+00
    4        1.390630e+00
    5       -5.031195e-01
    6        1.111661e+00
    7        5.294597e-01
    8        2.759933e-01
    9        1.670019e+00
   10       -5.909380e-01
   11        3.788054e-01
   12       -2.214845e+00
   13       -5.462297e+00
   14       -1.667830e+00
   15        9.375543e-01
   16       -1.258389e+00
   17        6.561851e-01
   18        2.717491e+00
   19        2.495150e+00
   20       -5.301434e+00
   21        7.344386e-02
   22       -1.236436e+00
   23        5.761920e-01
   24        4.822398e-01
   25        2.783275e-01
   26       -1.406003e+00
   27       -2.972370e-01
   28       -2.917481e-03
   29       -1.401706e+00
   30       -5.354384e-01
   31        7.732128e-01
   32       -8.235328e-01
   33        8.571192e-01
   34       -2.823380e+00
   35       -2.309670e+00
   36        1.069973e+00
   37       -1.319948e+00
   38       -1.412766e+00
   39        1.189731e+00
   40       -1.202499e+00
   41       -7.628794e-01
   42        1.889484e-01
   43       -7.045918e-01
   44        4.162316e-01
   45       -2.352036e-01
   46       -3.514266e-01
   47        3.877089e+00
   48        5.282153e-01
   49       -4.447811e-01
   50        3.893901e-01
   51        1.718095e-02
   52        1.855504e+00
   53        2.581802e+00
   54        4.787359e-01
   55        1.069015e+00
   56       -1.106245e+00
   57        1.452116e+00
   58        5.732688e-01
   59       -8.310236e-01
   60       -1.068111e+00
   61        2.938287e-03
   62        1.159207e+00
   63       -8.556553e-01
   64        1.589662e+00
   65       -1.936089e-01
   66        5.597125e-02
   67       -7.243206e-02
   68        1.185413e+00
   69        1.101079e+00
   70        2.300061e-01
   71       -5.990200e-01
   72        2.165109e-01
   73        5.265345e-01
   74        5.294079e-01
   75        3.925547e-01
   76       -1.186339e+00
   77       -1.029588e+00
   78        5.099889e-01
   79       -8.188133e-01
   80        1.919247e-02
   81       -1.207305e+00
   82        3.204959e-01
   83        5.232232e-01
   84       -2.957414e-01
   85       -1.516769e+00
   86        2.394463e-01
   87       -2.625451e-01
   88        5.499423e-01
   89       -1.187079e+00
   90        2.295157e+00
   91        1.439120e+00
   92        6.932725e-01
   93        1.034136e+00
   94       -1.339206e+00
   95        9.796280e-01
   96        1.533651e+00
   97        7.035030e-01
   98       -3.508595e-01
   99       -9.930408e-01
  100        1.191225e+00
;
param outliervec:=
    1    1
    2    1
    3    1
    4    1
    5    1
    6    1
    7    1
    8    1
    9    0
   10    1
   11    0
   12    0
   13    0
   14    1
   15    0
   16    1
   17    1
   18    1
   19    0
   20    0
   21    1
   22    1
   23    1
   24    1
   25    1
   26    0
   27    1
   28    1
   29    1
   30    1
   31    1
   32    1
   33    1
   34    1
   35    0
   36    1
   37    1
   38    1
   39    0
   40    1
   41    1
   42    1
   43    1
   44    1
   45    1
   46    1
   47    0
   48    1
   49    1
   50    0
   51    1
   52    1
   53    0
   54    1
   55    1
   56    1
   57    1
   58    1
   59    1
   60    1
   61    1
   62    0
   63    1
   64    1
   65    1
   66    1
   67    1
   68    1
   69    1
   70    1
   71    1
   72    1
   73    1
   74    1
   75    1
   76    1
   77    1
   78    0
   79    0
   80    1
   81    1
   82    1
   83    1
   84    1
   85    0
   86    1
   87    1
   88    1
   89    1
   90    0
   91    0
   92    1
   93    1
   94    0
   95    0
   96    0
   97    1
   98    1
   99    1
  100    1
;